%chk=C:\Users\epktb\Desktop\H2Otest.chk
# opt hf/3-21+g* geom=connectivity

H20test

0 1
 H                 -1.08895708   -0.55214723    0.00000000
 H                  0.65950922   -0.58282208    0.00000000
 O                 -0.26073620    0.76687115    0.00000000

 1 3 1.0
 2 3 1.0
 3

